50
547 125 281 431 17 499 953 429 835 961 21 14 437 960 455 798 672 46 466 644 160 133 668 301 691 278 77 375 788 349 546 774 278 867 42 451 242 171 900 167 781 472 946 886 17 952 559 727 106 719 
747 325 481 631 217 699 1153 629 1035 1161 221 214 637 1260 655 1098 972 246 666 844 360 333 868 501 891 478 277 575 988 549 846 1074 478 1067 342 651 442 371 1200 367 981 672 1146 1086 217 1152 759 927 306 919 
11886
